networks/zoo_84_689/zoo_84_689-lower.txt
Number of groups: 57
Flow 2: {1 4 0} 
Flow 3: {1 36 0} {36 8 1} {8 24 2} {24 13 3} {13 55 4} 
Flow 37: {3 23 0} {23 32 1} {32 5 2} {5 17 3} {17 59 4} 
Flow 43: {4 1 0} {1 43 1} 
Flow 47: {2 8 0} {8 42 1} {42 6 2} {6 48 3} 
Flow 50: {4 31 0} {31 30 1} {30 10 2} {10 9 3} {9 51 4} 
Flow 53: {4 36 0} {36 35 1} {35 12 2} {12 54 3} 
Flow 70: {32 74 0} 
Flow 86: {9 10 0} {10 52 1} 
Flow 103: {6 29 0} {29 30 1} {30 72 2} 
Flow 125: {7 2 0} {2 4 1} {4 46 2} 
Flow 129: {7 8 0} {8 36 1} {36 38 2} 
Flow 147: {8 31 0} {31 25 1} {25 67 2} 
Flow 188: {11 35 0} {35 37 1} 
Flow 191: {12 35 0} {35 77 1} 
Flow 198: {13 24 0} {24 14 1} {14 56 2} 
Flow 210: {14 24 0} 
Flow 221: {15 24 0} {24 16 1} {16 58 2} 
Flow 249: {16 24 0} {24 66 1} 
Flow 264: {8 7 0} {7 49 1} 
Flow 274: {5 32 0} {32 23 1} {23 65 2} 
Flow 279: {6 9 0} {9 28 1} {28 70 2} 
Flow 282: {17 5 0} {5 6 1} {6 42 2} {42 8 3} {8 33 4} 
Flow 291: {18 35 0} {35 22 1} {22 64 2} 
Flow 300: {19 35 0} 
Flow 303: {20 35 0} {35 36 1} {36 4 2} 
Flow 310: {21 2 0} {2 34 1} {34 32 2} {32 38 3} {38 80 4} 
Flow 331: {22 35 0} {35 32 1} {32 27 2} 
Flow 342: {40 41 0} {41 83 1} 
Flow 392: {24 41 0} 
Flow 397: {25 26 0} {26 38 1} {38 32 2} 
Flow 411: {26 25 0} {25 31 1} {31 73 2} 
Flow 422: {27 32 0} {32 35 1} 
Flow 424: {27 23 0} {23 38 1} {38 37 2} {37 79 3} 
Flow 429: {28 9 0} {9 6 1} 
Flow 435: {28 10 0} {10 30 1} {30 31 2} {31 38 3} 
Flow 445: {29 6 0} {6 5 1} {5 47 2} 
Flow 446: {30 8 0} {8 50 1} 
Flow 449: {24 15 0} {15 57 1} 
Flow 461: {31 4 0} {4 2 1} {2 3 2} {3 45 3} 
Flow 481: {38 23 0} {23 27 1} {27 69 2} 
Flow 490: {31 8 0} {8 40 1} {40 82 2} 
Flow 497: {34 2 0} {2 7 1} 
Flow 525: {36 1 0} 
Flow 555: {32 34 0} {34 76 1} 
Flow 559: {35 38 0} {38 39 1} {39 81 2} 
Flow 562: {42 84 0} 
Flow 587: {8 30 0} {30 29 1} {29 71 2} 
Flow 605: {37 35 0} {35 11 1} {11 53 2} 
Flow 617: {37 38 0} {38 26 1} {26 68 2} 
Flow 619: {10 28 0} 
Flow 623: {38 31 0} {31 33 1} {33 75 2} 
Flow 645: {38 35 0} {35 18 1} {18 60 2} 
Flow 663: {39 23 0} {23 3 1} {3 2 2} {2 44 3} 
Flow 666: {39 38 0} {38 36 1} {36 78 2} 
Flow 669: {40 8 0} {8 2 1} 
Flow 679: {41 24 0} {24 8 1} 
Time taken running everything: 2 seconds
