networks/zoo_84_689/zoo_84_689-lower.sol
<?xml version = "1.0" encoding="UTF-8" standalone="yes"?>
<CPLEXSolution version="1.2">
 <header
   problemName="networks/zoo_84_689/zoo_84_689-lower.lp"
   solutionName="incumbent"
   solutionIndex="-1"
   objectiveValue="39"
   solutionTypeValue="3"
   solutionTypeString="primal"
   solutionStatusValue="101"
   solutionStatusString="integer optimal solution"
   solutionMethodString="mip"
   primalFeasible="1"
   dualFeasible="1"
   MIPNodes="0"
   MIPIterations="0"
   writeLevel="3"/>
 <quality
   epInt="1.0000000000000001e-05"
   epRHS="9.9999999999999995e-07"
   maxIntInfeas="0"
   maxPrimalInfeas="0"
   maxX="1"
   maxSlack="1"/>
 <variables>
  <variable name="Y(1,2)" index="1" value="1"/>
  <variable name="Y(2,4)" index="84" value="1"/>
  <variable name="Y(3,13)" index="174" value="1"/>
  <variable name="Y(4,17)" index="259" value="1"/>
  <variable name="Y(5,22)" index="345" value="1"/>
  <variable name="Y(6,35)" index="439" value="1"/>
  <variable name="Y(7,36)" index="521" value="1"/>
  <variable name="Y(8,37)" index="603" value="1"/>
  <variable name="Y(9,38)" index="685" value="1"/>
  <variable name="Y(11,5)" index="814" value="1"/>
  <variable name="Y(12,6)" index="896" value="1"/>
  <variable name="Y(13,7)" index="978" value="1"/>
  <variable name="Y(14,8)" index="1060" value="1"/>
  <variable name="Y(15,10)" index="1143" value="1"/>
  <variable name="Y(17,14)" index="1309" value="1"/>
  <variable name="Y(18,15)" index="1391" value="1"/>
  <variable name="Y(19,16)" index="1473" value="1"/>
  <variable name="Y(21,18)" index="1637" value="1"/>
  <variable name="Y(23,23)" index="1804" value="1"/>
  <variable name="Y(24,24)" index="1886" value="1"/>
  <variable name="Y(25,25)" index="1968" value="1"/>
  <variable name="Y(26,26)" index="2050" value="1"/>
  <variable name="Y(27,27)" index="2132" value="1"/>
  <variable name="Y(28,30)" index="2216" value="1"/>
  <variable name="Y(29,31)" index="2298" value="1"/>
  <variable name="Y(43,1)" index="3402" value="1"/>
  <variable name="Y(45,3)" index="3566" value="1"/>
  <variable name="Y(50,9)" index="3977" value="1"/>
  <variable name="Y(52,11)" index="4141" value="1"/>
  <variable name="Y(53,12)" index="4223" value="1"/>
  <variable name="Y(66,28)" index="5292" value="1"/>
  <variable name="Y(67,29)" index="5374" value="1"/>
  <variable name="Y(70,32)" index="5620" value="1"/>
  <variable name="Y(71,33)" index="5702" value="1"/>
  <variable name="Y(72,34)" index="5784" value="1"/>
  <variable name="Y(77,40)" index="6195" value="1"/>
  <variable name="Y(78,41)" index="6277" value="1"/>
  <variable name="Y(79,42)" index="6359" value="1"/>
  <variable name="Y(559,39)" index="45236" value="1"/>
  <variable name="X(1,4,1)" index="55809" value="1"/>
  <variable name="X(1,36,3)" index="56500" value="1"/>
  <variable name="X(1,43,43)" index="57229" value="1"/>
  <variable name="X(2,3,23)" index="57898" value="1"/>
  <variable name="X(2,4,10)" index="58574" value="1"/>
  <variable name="X(2,7,13)" index="59266" value="1"/>
  <variable name="X(2,8,12)" index="59954" value="1"/>
  <variable name="X(2,34,11)" index="60642" value="1"/>
  <variable name="X(2,44,1)" index="61321" value="1"/>
  <variable name="X(3,2,34)" index="62043" value="1"/>
  <variable name="X(3,23,23)" index="62721" value="1"/>
  <variable name="X(3,45,45)" index="63432" value="1"/>
  <variable name="X(4,1,43)" index="64119" value="1"/>
  <variable name="X(4,2,1)" index="64766" value="1"/>
  <variable name="X(4,31,25)" index="65479" value="1"/>
  <variable name="X(4,36,31)" index="66174" value="1"/>
  <variable name="X(4,46,2)" index="66834" value="1"/>
  <variable name="X(5,6,83)" index="67604" value="1"/>
  <variable name="X(5,17,4)" index="68214" value="1"/>
  <variable name="X(5,32,80)" index="68979" value="1"/>
  <variable name="X(5,47,11)" index="69599" value="1"/>
  <variable name="X(6,5,116)" index="70393" value="1"/>
  <variable name="X(6,9,86)" index="71052" value="1"/>
  <variable name="X(6,29,102)" index="71757" value="1"/>
  <variable name="X(6,42,84)" index="72428" value="1"/>
  <variable name="X(6,48,12)" index="73045" value="1"/>
  <variable name="X(7,2,124)" index="73846" value="1"/>
  <variable name="X(7,8,126)" index="74537" value="1"/>
  <variable name="X(7,49,13)" index="75113" value="1"/>
  <variable name="X(8,2,112)" index="75901" value="1"/>
  <variable name="X(8,7,84)" index="76562" value="1"/>
  <variable name="X(8,24,3)" index="77170" value="1"/>
  <variable name="X(8,30,15)" index="77871" value="1"/>
  <variable name="X(8,31,147)" index="78692" value="1"/>
  <variable name="X(8,33,105)" index="79339" value="1"/>
  <variable name="X(8,36,121)" index="80044" value="1"/>
  <variable name="X(8,40,77)" index="80689" value="1"/>
  <variable name="X(8,42,12)" index="81313" value="1"/>
  <variable name="X(8,50,14)" index="82004" value="1"/>
  <variable name="X(9,6,158)" index="82837" value="1"/>
  <variable name="X(9,10,86)" index="83454" value="1"/>
  <variable name="X(9,28,101)" index="84158" value="1"/>
  <variable name="X(9,51,50)" index="84796" value="1"/>
  <variable name="X(10,9,50)" index="85485" value="1"/>
  <variable name="X(10,28,66)" index="86190" value="1"/>
  <variable name="X(10,30,159)" index="86972" value="1"/>
  <variable name="X(10,52,15)" index="87517" value="1"/>
  <variable name="X(11,35,184)" index="88375" value="1"/>
  <variable name="X(11,53,52)" index="88932" value="1"/>
  <variable name="X(12,35,190)" index="89759" value="1"/>
  <variable name="X(12,54,53)" index="90311" value="1"/>
  <variable name="X(13,24,194)" index="91141" value="1"/>
  <variable name="X(13,55,3)" index="91639" value="1"/>
  <variable name="X(14,24,210)" index="92535" value="1"/>
  <variable name="X(14,56,17)" index="93031" value="1"/>
  <variable name="X(15,24,214)" index="93917" value="1"/>
  <variable name="X(15,57,18)" index="94410" value="1"/>
  <variable name="X(16,24,235)" index="95316" value="1"/>
  <variable name="X(16,58,19)" index="95789" value="1"/>
  <variable name="X(17,5,259)" index="96718" value="1"/>
  <variable name="X(17,59,4)" index="97152" value="1"/>
  <variable name="X(18,35,287)" index="98124" value="1"/>
  <variable name="X(18,60,21)" index="98547" value="1"/>
  <variable name="X(19,35,297)" index="99512" value="1"/>
  <variable name="X(20,35,302)" index="100206" value="1"/>
  <variable name="X(21,2,307)" index="100900" value="1"/>
  <variable name="X(22,35,311)" index="101593" value="1"/>
  <variable name="X(22,64,5)" index="101976" value="1"/>
  <variable name="X(23,3,81)" index="102741" value="1"/>
  <variable name="X(23,27,481)" index="103830" value="1"/>
  <variable name="X(23,32,37)" index="104075" value="1"/>
  <variable name="X(23,38,41)" index="104768" value="1"/>
  <variable name="X(23,65,23)" index="105439" value="1"/>
  <variable name="X(24,8,194)" index="106299" value="1"/>
  <variable name="X(24,13,3)" index="106797" value="1"/>
  <variable name="X(24,14,17)" index="107500" value="1"/>
  <variable name="X(24,15,18)" index="108190" value="1"/>
  <variable name="X(24,16,19)" index="108880" value="1"/>
  <variable name="X(24,41,392)" index="109942" value="1"/>
  <variable name="X(24,66,24)" index="110263" value="1"/>
  <variable name="X(25,26,397)" index="111325" value="1"/>
  <variable name="X(25,31,394)" index="112011" value="1"/>
  <variable name="X(25,67,25)" index="112331" value="1"/>
  <variable name="X(26,25,98)" index="113093" value="1"/>
  <variable name="X(26,38,397)" index="114081" value="1"/>
  <variable name="X(26,68,26)" index="114399" value="1"/>
  <variable name="X(27,23,416)" index="115478" value="1"/>
  <variable name="X(27,32,419)" index="116170" value="1"/>
  <variable name="X(27,69,27)" index="116467" value="1"/>
  <variable name="X(28,9,429)" index="117558" value="1"/>
  <variable name="X(28,10,426)" index="118244" value="1"/>
  <variable name="X(28,70,66)" index="118573" value="1"/>
  <variable name="X(29,6,438)" index="119634" value="1"/>
  <variable name="X(29,30,103)" index="119988" value="1"/>
  <variable name="X(29,71,67)" index="120641" value="1"/>
  <variable name="X(30,8,174)" index="121437" value="1"/>
  <variable name="X(30,10,15)" index="121967" value="1"/>
  <variable name="X(30,29,67)" index="122708" value="1"/>
  <variable name="X(30,31,113)" index="123443" value="1"/>
  <variable name="X(30,72,28)" index="124047" value="1"/>
  <variable name="X(31,4,113)" index="124821" value="1"/>
  <variable name="X(31,8,396)" index="125793" value="1"/>
  <variable name="X(31,25,25)" index="126111" value="1"/>
  <variable name="X(31,30,50)" index="126825" value="1"/>
  <variable name="X(31,33,71)" index="127535" value="1"/>
  <variable name="X(31,38,182)" index="128335" value="1"/>
  <variable name="X(31,73,29)" index="128871" value="1"/>
  <variable name="X(32,5,4)" index="129535" value="1"/>
  <variable name="X(32,23,81)" index="130301" value="1"/>
  <variable name="X(32,27,27)" index="130936" value="1"/>
  <variable name="X(32,34,80)" index="131678" value="1"/>
  <variable name="X(32,35,21)" index="132308" value="1"/>
  <variable name="X(32,38,26)" index="133002" value="1"/>
  <variable name="X(32,74,70)" index="133735" value="1"/>
  <variable name="X(33,75,71)" index="134425" value="1"/>
  <variable name="X(34,2,80)" index="135123" value="1"/>
  <variable name="X(34,32,11)" index="135743" value="1"/>
  <variable name="X(34,76,72)" index="136493" value="1"/>
  <variable name="X(35,11,52)" index="137162" value="1"/>
  <variable name="X(35,12,53)" index="137852" value="1"/>
  <variable name="X(35,18,21)" index="138509" value="1"/>
  <variable name="X(35,22,5)" index="139182" value="1"/>
  <variable name="X(35,32,4)" index="139870" value="1"/>
  <variable name="X(35,36,107)" index="140662" value="1"/>
  <variable name="X(35,37,8)" index="141252" value="1"/>
  <variable name="X(35,38,189)" index="142122" value="1"/>
  <variable name="X(35,77,6)" index="142628" value="1"/>
  <variable name="X(36,1,525)" index="143836" value="1"/>
  <variable name="X(36,4,185)" index="144185" value="1"/>
  <variable name="X(36,8,3)" index="144692" value="1"/>
  <variable name="X(36,35,4)" index="145382" value="1"/>
  <variable name="X(36,38,9)" index="146076" value="1"/>
  <variable name="X(36,78,7)" index="146763" value="1"/>
  <variable name="X(37,35,597)" index="148042" value="1"/>
  <variable name="X(37,38,598)" index="148732" value="1"/>
  <variable name="X(37,79,8)" index="148831" value="1"/>
  <variable name="X(38,23,453)" index="149965" value="1"/>
  <variable name="X(38,26,26)" index="150227" value="1"/>
  <variable name="X(38,31,104)" index="150994" value="1"/>
  <variable name="X(38,32,397)" index="151976" value="1"/>
  <variable name="X(38,35,398)" index="152666" value="1"/>
  <variable name="X(38,36,357)" index="153314" value="1"/>
  <variable name="X(38,37,41)" index="153687" value="1"/>
  <variable name="X(38,39,559)" index="154894" value="1"/>
  <variable name="X(38,80,9)" index="155033" value="1"/>
  <variable name="X(39,23,663)" index="156376" value="1"/>
  <variable name="X(39,38,664)" index="157066" value="1"/>
  <variable name="X(39,81,559)" index="157650" value="1"/>
  <variable name="X(40,8,668)" index="158448" value="1"/>
  <variable name="X(40,41,78)" index="158547" value="1"/>
  <variable name="X(40,82,77)" index="159235" value="1"/>
  <variable name="X(41,24,678)" index="160525" value="1"/>
  <variable name="X(41,83,78)" index="160614" value="1"/>
  <variable name="X(42,6,12)" index="161237" value="1"/>
  <variable name="X(42,8,84)" index="161998" value="1"/>
  <variable name="X(42,84,79)" index="162682" value="1"/>
 </variables>
</CPLEXSolution>
